50
150
99
96
95
95
92
91
90
86
86
86
85
80
77
77
76
76
71
70
70
69
68
64
64
61
60
60
56
55
53
52
50
48
44
41
40
38
38
37
35
21
19
14
12
9
6
6
6
4
3
2
